c nIsolatedPIs 24
c maxPI 176
p cnf 643 1402
c gate 177 71 159 0
71 -177 0
159 -177 0
-71 -159 177 0
c gate 178 72 160 0
72 -178 0
160 -178 0
-72 -160 178 0
c gate 179 -177 -178 0
-177 -179 0
-178 -179 0
177 178 179 0
c gate 180 -70 -158 0
-70 -180 0
-158 -180 0
70 158 180 0
c gate 181 65 153 0
65 -181 0
153 -181 0
-65 -153 181 0
c gate 182 -65 -153 0
-65 -182 0
-153 -182 0
65 153 182 0
c gate 183 -181 -182 0
-181 -183 0
-182 -183 0
181 182 183 0
c gate 184 57 145 0
57 -184 0
145 -184 0
-57 -145 184 0
c gate 185 58 146 0
58 -185 0
146 -185 0
-58 -146 185 0
c gate 186 -184 -185 0
-184 -186 0
-185 -186 0
184 185 186 0
c gate 187 -58 -146 0
-58 -187 0
-146 -187 0
58 146 187 0
c gate 188 -59 -147 0
-59 -188 0
-147 -188 0
59 147 188 0
c gate 189 -187 -188 0
-187 -189 0
-188 -189 0
187 188 189 0
c gate 190 -186 189 0
-186 -190 0
189 -190 0
186 -189 190 0
c gate 191 60 148 0
60 -191 0
148 -191 0
-60 -148 191 0
c gate 192 59 147 0
59 -192 0
147 -192 0
-59 -147 192 0
c gate 193 -191 -192 0
-191 -193 0
-192 -193 0
191 192 193 0
c gate 194 -190 193 0
-190 -194 0
193 -194 0
190 -193 194 0
c gate 195 55 143 0
55 -195 0
143 -195 0
-55 -143 195 0
c gate 196 56 144 0
56 -196 0
144 -196 0
-56 -144 196 0
c gate 197 -195 -196 0
-195 -197 0
-196 -197 0
195 196 197 0
c gate 198 -53 -141 0
-53 -198 0
-141 -198 0
53 141 198 0
c gate 199 51 139 0
51 -199 0
139 -199 0
-51 -139 199 0
c gate 200 52 140 0
52 -200 0
140 -200 0
-52 -140 200 0
c gate 201 -199 -200 0
-199 -201 0
-200 -201 0
199 200 201 0
c gate 202 -52 -140 0
-52 -202 0
-140 -202 0
52 140 202 0
c gate 203 -201 -202 0
-201 -203 0
-202 -203 0
201 202 203 0
c gate 204 -51 -139 0
-51 -204 0
-139 -204 0
51 139 204 0
c gate 205 -202 -204 0
-202 -205 0
-204 -205 0
202 204 205 0
c gate 206 201 205 0
201 -206 0
205 -206 0
-201 -205 206 0
c gate 207 49 137 0
49 -207 0
137 -207 0
-49 -137 207 0
c gate 208 50 138 0
50 -208 0
138 -208 0
-50 -138 208 0
c gate 209 -207 -208 0
-207 -209 0
-208 -209 0
207 208 209 0
c gate 210 -50 -138 0
-50 -210 0
-138 -210 0
50 138 210 0
c gate 211 -209 -210 0
-209 -211 0
-210 -211 0
209 210 211 0
c gate 212 206 211 0
206 -212 0
211 -212 0
-206 -211 212 0
c gate 213 -203 -212 0
-203 -213 0
-212 -213 0
203 212 213 0
c gate 214 -198 -213 0
-198 -214 0
-213 -214 0
198 213 214 0
c gate 215 54 142 0
54 -215 0
142 -215 0
-54 -142 215 0
c gate 216 53 141 0
53 -216 0
141 -216 0
-53 -141 216 0
c gate 217 -215 -216 0
-215 -217 0
-216 -217 0
215 216 217 0
c gate 218 -214 217 0
-214 -218 0
217 -218 0
214 -217 218 0
c gate 219 39 127 0
39 -219 0
127 -219 0
-39 -127 219 0
c gate 220 40 128 0
40 -220 0
128 -220 0
-40 -128 220 0
c gate 221 -219 -220 0
-219 -221 0
-220 -221 0
219 220 221 0
c gate 222 -40 -128 0
-40 -222 0
-128 -222 0
40 128 222 0
c gate 223 -221 -222 0
-221 -223 0
-222 -223 0
221 222 223 0
c gate 224 37 125 0
37 -224 0
125 -224 0
-37 -125 224 0
c gate 225 38 126 0
38 -225 0
126 -225 0
-38 -126 225 0
c gate 226 -224 -225 0
-224 -226 0
-225 -226 0
224 225 226 0
c gate 227 -39 -127 0
-39 -227 0
-127 -227 0
39 127 227 0
c gate 228 -38 -126 0
-38 -228 0
-126 -228 0
38 126 228 0
c gate 229 -222 -228 0
-222 -229 0
-228 -229 0
222 228 229 0
c gate 230 -227 229 0
-227 -230 0
229 -230 0
227 -229 230 0
c gate 231 221 230 0
221 -231 0
230 -231 0
-221 -230 231 0
c gate 232 -226 231 0
-226 -232 0
231 -232 0
226 -231 232 0
c gate 233 -223 -232 0
-223 -233 0
-232 -233 0
223 232 233 0
c gate 234 -36 -124 0
-36 -234 0
-124 -234 0
36 124 234 0
c gate 235 33 121 0
33 -235 0
121 -235 0
-33 -121 235 0
c gate 236 34 122 0
34 -236 0
122 -236 0
-34 -122 236 0
c gate 237 -235 -236 0
-235 -237 0
-236 -237 0
235 236 237 0
c gate 238 -34 -122 0
-34 -238 0
-122 -238 0
34 122 238 0
c gate 239 -35 -123 0
-35 -239 0
-123 -239 0
35 123 239 0
c gate 240 -238 -239 0
-238 -240 0
-239 -240 0
238 239 240 0
c gate 241 -237 240 0
-237 -241 0
240 -241 0
237 -240 241 0
c gate 242 36 124 0
36 -242 0
124 -242 0
-36 -124 242 0
c gate 243 35 123 0
35 -243 0
123 -243 0
-35 -123 243 0
c gate 244 -242 -243 0
-242 -244 0
-243 -244 0
242 243 244 0
c gate 245 -241 244 0
-241 -245 0
244 -245 0
241 -244 245 0
c gate 246 -234 -245 0
-234 -246 0
-245 -246 0
234 245 246 0
c gate 247 15 103 0
15 -247 0
103 -247 0
-15 -103 247 0
c gate 248 16 104 0
16 -248 0
104 -248 0
-16 -104 248 0
c gate 249 -247 -248 0
-247 -249 0
-248 -249 0
247 248 249 0
c gate 250 -14 -102 0
-14 -250 0
-102 -250 0
14 102 250 0
c gate 251 -15 -103 0
-15 -251 0
-103 -251 0
15 103 251 0
c gate 252 -250 -251 0
-250 -252 0
-251 -252 0
250 251 252 0
c gate 253 -13 -101 0
-13 -253 0
-101 -253 0
13 101 253 0
c gate 254 12 100 0
12 -254 0
100 -254 0
-12 -100 254 0
c gate 255 -12 -100 0
-12 -255 0
-100 -255 0
12 100 255 0
c gate 256 11 99 0
11 -256 0
99 -256 0
-11 -99 256 0
c gate 257 -255 256 0
-255 -257 0
256 -257 0
255 -256 257 0
c gate 258 -254 -257 0
-254 -258 0
-257 -258 0
254 257 258 0
c gate 259 -10 -98 0
-10 -259 0
-98 -259 0
10 98 259 0
c gate 260 -11 -99 0
-11 -260 0
-99 -260 0
11 99 260 0
c gate 261 -255 -260 0
-255 -261 0
-260 -261 0
255 260 261 0
c gate 262 -259 261 0
-259 -262 0
261 -262 0
259 -261 262 0
c gate 263 258 262 0
258 -263 0
262 -263 0
-258 -262 263 0
c gate 264 9 97 0
9 -264 0
97 -264 0
-9 -97 264 0
c gate 265 10 98 0
10 -265 0
98 -265 0
-10 -98 265 0
c gate 266 -259 -265 0
-259 -266 0
-265 -266 0
259 265 266 0
c gate 267 -264 266 0
-264 -267 0
266 -267 0
264 -266 267 0
c gate 268 263 -267 0
263 -268 0
-267 -268 0
-263 267 268 0
c gate 269 258 -268 0
258 -269 0
-268 -269 0
-258 268 269 0
c gate 270 -253 -269 0
-253 -270 0
-269 -270 0
253 269 270 0
c gate 271 14 102 0
14 -271 0
102 -271 0
-14 -102 271 0
c gate 272 13 101 0
13 -272 0
101 -272 0
-13 -101 272 0
c gate 273 -271 -272 0
-271 -273 0
-272 -273 0
271 272 273 0
c gate 274 -270 273 0
-270 -274 0
273 -274 0
270 -273 274 0
c gate 275 2 90 0
2 -275 0
90 -275 0
-2 -90 275 0
c gate 276 1 89 0
1 -276 0
89 -276 0
-1 -89 276 0
c gate 277 -275 -276 0
-275 -277 0
-276 -277 0
275 276 277 0
c gate 278 -3 -91 0
-3 -278 0
-91 -278 0
3 91 278 0
c gate 279 -2 -90 0
-2 -279 0
-90 -279 0
2 90 279 0
c gate 280 -278 -279 0
-278 -280 0
-279 -280 0
278 279 280 0
c gate 281 -277 280 0
-277 -281 0
280 -281 0
277 -280 281 0
c gate 282 4 92 0
4 -282 0
92 -282 0
-4 -92 282 0
c gate 283 3 91 0
3 -283 0
91 -283 0
-3 -91 283 0
c gate 284 -282 -283 0
-282 -284 0
-283 -284 0
282 283 284 0
c gate 285 -281 284 0
-281 -285 0
284 -285 0
281 -284 285 0
c gate 286 -4 -92 0
-4 -286 0
-92 -286 0
4 92 286 0
c gate 287 -5 -93 0
-5 -287 0
-93 -287 0
5 93 287 0
c gate 288 -286 -287 0
-286 -288 0
-287 -288 0
286 287 288 0
c gate 289 -285 288 0
-285 -289 0
288 -289 0
285 -288 289 0
c gate 290 6 94 0
6 -290 0
94 -290 0
-6 -94 290 0
c gate 291 5 93 0
5 -291 0
93 -291 0
-5 -93 291 0
c gate 292 -290 -291 0
-290 -292 0
-291 -292 0
290 291 292 0
c gate 293 -289 292 0
-289 -293 0
292 -293 0
289 -292 293 0
c gate 294 -8 -96 0
-8 -294 0
-96 -294 0
8 96 294 0
c gate 295 7 95 0
7 -295 0
95 -295 0
-7 -95 295 0
c gate 296 -294 -295 0
-294 -296 0
-295 -296 0
294 295 296 0
c gate 297 -6 -94 0
-6 -297 0
-94 -297 0
6 94 297 0
c gate 298 -7 -95 0
-7 -298 0
-95 -298 0
7 95 298 0
c gate 299 -297 -298 0
-297 -299 0
-298 -299 0
297 298 299 0
c gate 300 296 299 0
296 -300 0
299 -300 0
-296 -299 300 0
c gate 301 -293 300 0
-293 -301 0
300 -301 0
293 -300 301 0
c gate 302 -294 295 0
-294 -302 0
295 -302 0
294 -295 302 0
c gate 303 8 96 0
8 -303 0
96 -303 0
-8 -96 303 0
c gate 304 -302 -303 0
-302 -304 0
-303 -304 0
302 303 304 0
c gate 305 -301 304 0
-301 -305 0
304 -305 0
301 -304 305 0
c gate 306 -9 -97 0
-9 -306 0
-97 -306 0
9 97 306 0
c gate 307 -253 -306 0
-253 -307 0
-306 -307 0
253 306 307 0
c gate 308 267 307 0
267 -308 0
307 -308 0
-267 -307 308 0
c gate 309 263 308 0
263 -309 0
308 -309 0
-263 -308 309 0
c gate 310 -305 309 0
-305 -310 0
309 -310 0
305 -309 310 0
c gate 311 274 -310 0
274 -311 0
-310 -311 0
-274 310 311 0
c gate 312 252 -311 0
252 -312 0
-311 -312 0
-252 311 312 0
c gate 313 249 -312 0
249 -313 0
-312 -313 0
-249 312 313 0
c gate 314 -17 -105 0
-17 -314 0
-105 -314 0
17 105 314 0
c gate 315 -16 -104 0
-16 -315 0
-104 -315 0
16 104 315 0
c gate 316 17 105 0
17 -316 0
105 -316 0
-17 -105 316 0
c gate 317 -315 -316 0
-315 -317 0
-316 -317 0
315 316 317 0
c gate 318 -314 317 0
-314 -318 0
317 -318 0
314 -317 318 0
c gate 319 -313 318 0
-313 -319 0
318 -319 0
313 -318 319 0
c gate 320 -25 -113 0
-25 -320 0
-113 -320 0
25 113 320 0
c gate 321 28 116 0
28 -321 0
116 -321 0
-28 -116 321 0
c gate 322 -320 -321 0
-320 -322 0
-321 -322 0
320 321 322 0
c gate 323 -28 -116 0
-28 -323 0
-116 -323 0
28 116 323 0
c gate 324 27 115 0
27 -324 0
115 -324 0
-27 -115 324 0
c gate 325 -323 -324 0
-323 -325 0
-324 -325 0
323 324 325 0
c gate 326 322 325 0
322 -326 0
325 -326 0
-322 -325 326 0
c gate 327 26 114 0
26 -327 0
114 -327 0
-26 -114 327 0
c gate 328 25 113 0
25 -328 0
113 -328 0
-25 -113 328 0
c gate 329 -327 -328 0
-327 -329 0
-328 -329 0
327 328 329 0
c gate 330 -26 -114 0
-26 -330 0
-114 -330 0
26 114 330 0
c gate 331 -27 -115 0
-27 -331 0
-115 -331 0
27 115 331 0
c gate 332 -330 -331 0
-330 -332 0
-331 -332 0
330 331 332 0
c gate 333 329 332 0
329 -333 0
332 -333 0
-329 -332 333 0
c gate 334 326 333 0
326 -334 0
333 -334 0
-326 -333 334 0
c gate 335 -21 -109 0
-21 -335 0
-109 -335 0
21 109 335 0
c gate 336 -20 -108 0
-20 -336 0
-108 -336 0
20 108 336 0
c gate 337 -335 -336 0
-335 -337 0
-336 -337 0
335 336 337 0
c gate 338 19 107 0
19 -338 0
107 -338 0
-19 -107 338 0
c gate 339 20 108 0
20 -339 0
108 -339 0
-20 -108 339 0
c gate 340 -338 -339 0
-338 -340 0
-339 -340 0
338 339 340 0
c gate 341 21 109 0
21 -341 0
109 -341 0
-21 -109 341 0
c gate 342 22 110 0
22 -342 0
110 -342 0
-22 -110 342 0
c gate 343 -341 -342 0
-341 -343 0
-342 -343 0
341 342 343 0
c gate 344 340 343 0
340 -344 0
343 -344 0
-340 -343 344 0
c gate 345 337 344 0
337 -345 0
344 -345 0
-337 -344 345 0
c gate 346 -23 -111 0
-23 -346 0
-111 -346 0
23 111 346 0
c gate 347 -22 -110 0
-22 -347 0
-110 -347 0
22 110 347 0
c gate 348 -346 -347 0
-346 -348 0
-347 -348 0
346 347 348 0
c gate 349 -24 -112 0
-24 -349 0
-112 -349 0
24 112 349 0
c gate 350 -19 -107 0
-19 -350 0
-107 -350 0
19 107 350 0
c gate 351 -349 -350 0
-349 -351 0
-350 -351 0
349 350 351 0
c gate 352 348 351 0
348 -352 0
351 -352 0
-348 -351 352 0
c gate 353 23 111 0
23 -353 0
111 -353 0
-23 -111 353 0
c gate 354 24 112 0
24 -354 0
112 -354 0
-24 -112 354 0
c gate 355 -353 -354 0
-353 -355 0
-354 -355 0
353 354 355 0
c gate 356 18 106 0
18 -356 0
106 -356 0
-18 -106 356 0
c gate 357 -18 -106 0
-18 -357 0
-106 -357 0
18 106 357 0
c gate 358 -356 -357 0
-356 -358 0
-357 -358 0
356 357 358 0
c gate 359 355 358 0
355 -359 0
358 -359 0
-355 -358 359 0
c gate 360 352 359 0
352 -360 0
359 -360 0
-352 -359 360 0
c gate 361 345 360 0
345 -361 0
360 -361 0
-345 -360 361 0
c gate 362 334 361 0
334 -362 0
361 -362 0
-334 -361 362 0
c gate 363 319 362 0
319 -363 0
362 -363 0
-319 -362 363 0
c gate 364 32 120 0
32 -364 0
120 -364 0
-32 -120 364 0
c gate 365 -31 -119 0
-31 -365 0
-119 -365 0
31 119 365 0
c gate 366 -32 -120 0
-32 -366 0
-120 -366 0
32 120 366 0
c gate 367 -365 -366 0
-365 -367 0
-366 -367 0
365 366 367 0
c gate 368 31 119 0
31 -368 0
119 -368 0
-31 -119 368 0
c gate 369 -30 -118 0
-30 -369 0
-118 -369 0
30 118 369 0
c gate 370 30 118 0
30 -370 0
118 -370 0
-30 -118 370 0
c gate 371 29 117 0
29 -371 0
117 -371 0
-29 -117 371 0
c gate 372 -369 -371 0
-369 -372 0
-371 -372 0
369 371 372 0
c gate 373 -370 372 0
-370 -373 0
372 -373 0
370 -372 373 0
c gate 374 -369 -373 0
-369 -374 0
-373 -374 0
369 373 374 0
c gate 375 -368 -374 0
-368 -375 0
-374 -375 0
368 374 375 0
c gate 376 367 -375 0
367 -376 0
-375 -376 0
-367 375 376 0
c gate 377 -364 -376 0
-364 -377 0
-376 -377 0
364 376 377 0
c gate 378 -29 -117 0
-29 -378 0
-117 -378 0
29 117 378 0
c gate 379 373 -378 0
373 -379 0
-378 -379 0
-373 378 379 0
c gate 380 367 379 0
367 -380 0
379 -380 0
-367 -379 380 0
c gate 381 377 380 0
377 -381 0
380 -381 0
-377 -380 381 0
c gate 382 363 381 0
363 -382 0
381 -382 0
-363 -381 382 0
c gate 383 -316 358 0
-316 -383 0
358 -383 0
316 -358 383 0
c gate 384 -350 -357 0
-350 -384 0
-357 -384 0
350 357 384 0
c gate 385 -383 384 0
-383 -385 0
384 -385 0
383 -384 385 0
c gate 386 340 -385 0
340 -386 0
-385 -386 0
-340 385 386 0
c gate 387 337 -386 0
337 -387 0
-386 -387 0
-337 386 387 0
c gate 388 343 -387 0
343 -388 0
-387 -388 0
-343 387 388 0
c gate 389 348 -388 0
348 -389 0
-388 -389 0
-348 388 389 0
c gate 390 355 -389 0
355 -390 0
-389 -390 0
-355 389 390 0
c gate 391 334 -349 0
334 -391 0
-349 -391 0
-334 349 391 0
c gate 392 -390 391 0
-390 -392 0
391 -392 0
390 -391 392 0
c gate 393 -329 332 0
-329 -393 0
332 -393 0
329 -332 393 0
c gate 394 -324 -393 0
-324 -394 0
-393 -394 0
324 393 394 0
c gate 395 -323 -394 0
-323 -395 0
-394 -395 0
323 394 395 0
c gate 396 -321 -395 0
-321 -396 0
-395 -396 0
321 395 396 0
c gate 397 -392 396 0
-392 -397 0
396 -397 0
392 -396 397 0
c gate 398 381 -397 0
381 -398 0
-397 -398 0
-381 397 398 0
c gate 399 377 -398 0
377 -399 0
-398 -399 0
-377 398 399 0
c gate 400 -382 399 0
-382 -400 0
399 -400 0
382 -399 400 0
c gate 401 -33 -121 0
-33 -401 0
-121 -401 0
33 121 401 0
c gate 402 -234 -401 0
-234 -402 0
-401 -402 0
234 401 402 0
c gate 403 240 402 0
240 -403 0
402 -403 0
-240 -402 403 0
c gate 404 245 403 0
245 -404 0
403 -404 0
-245 -403 404 0
c gate 405 -400 404 0
-400 -405 0
404 -405 0
400 -404 405 0
c gate 406 -246 -405 0
-246 -406 0
-405 -406 0
246 405 406 0
c gate 407 -37 -125 0
-37 -407 0
-125 -407 0
37 125 407 0
c gate 408 226 -407 0
226 -408 0
-407 -408 0
-226 407 408 0
c gate 409 231 408 0
231 -409 0
408 -409 0
-231 -408 409 0
c gate 410 -406 409 0
-406 -410 0
409 -410 0
406 -409 410 0
c gate 411 233 -410 0
233 -411 0
-410 -411 0
-233 410 411 0
c gate 412 -46 -134 0
-46 -412 0
-134 -412 0
46 134 412 0
c gate 413 45 133 0
45 -413 0
133 -413 0
-45 -133 413 0
c gate 414 41 129 0
41 -414 0
129 -414 0
-41 -129 414 0
c gate 415 42 130 0
42 -415 0
130 -415 0
-42 -130 415 0
c gate 416 -414 -415 0
-414 -416 0
-415 -416 0
414 415 416 0
c gate 417 -42 -130 0
-42 -417 0
-130 -417 0
42 130 417 0
c gate 418 -43 -131 0
-43 -418 0
-131 -418 0
43 131 418 0
c gate 419 -417 -418 0
-417 -419 0
-418 -419 0
417 418 419 0
c gate 420 -416 419 0
-416 -420 0
419 -420 0
416 -419 420 0
c gate 421 44 132 0
44 -421 0
132 -421 0
-44 -132 421 0
c gate 422 43 131 0
43 -422 0
131 -422 0
-43 -131 422 0
c gate 423 -421 -422 0
-421 -423 0
-422 -423 0
421 422 423 0
c gate 424 -420 423 0
-420 -424 0
423 -424 0
420 -423 424 0
c gate 425 -44 -132 0
-44 -425 0
-132 -425 0
44 132 425 0
c gate 426 -45 -133 0
-45 -426 0
-133 -426 0
45 133 426 0
c gate 427 -425 -426 0
-425 -427 0
-426 -427 0
425 426 427 0
c gate 428 -424 427 0
-424 -428 0
427 -428 0
424 -427 428 0
c gate 429 -413 -428 0
-413 -429 0
-428 -429 0
413 428 429 0
c gate 430 -412 -429 0
-412 -430 0
-429 -430 0
412 429 430 0
c gate 431 46 134 0
46 -431 0
134 -431 0
-46 -134 431 0
c gate 432 47 135 0
47 -432 0
135 -432 0
-47 -135 432 0
c gate 433 -431 -432 0
-431 -433 0
-432 -433 0
431 432 433 0
c gate 434 -430 433 0
-430 -434 0
433 -434 0
430 -433 434 0
c gate 435 48 136 0
48 -435 0
136 -435 0
-48 -136 435 0
c gate 436 -41 -129 0
-41 -436 0
-129 -436 0
41 129 436 0
c gate 437 -426 -436 0
-426 -437 0
-436 -437 0
426 436 437 0
c gate 438 -435 437 0
-435 -438 0
437 -438 0
435 -437 438 0
c gate 439 -48 -136 0
-48 -439 0
-136 -439 0
48 136 439 0
c gate 440 -47 -135 0
-47 -440 0
-135 -440 0
47 135 440 0
c gate 441 -439 -440 0
-439 -441 0
-440 -441 0
439 440 441 0
c gate 442 -412 -425 0
-412 -442 0
-425 -442 0
412 425 442 0
c gate 443 419 442 0
419 -443 0
442 -443 0
-419 -442 443 0
c gate 444 441 443 0
441 -444 0
443 -444 0
-441 -443 444 0
c gate 445 438 444 0
438 -445 0
444 -445 0
-438 -444 445 0
c gate 446 424 445 0
424 -446 0
445 -446 0
-424 -445 446 0
c gate 447 434 446 0
434 -447 0
446 -447 0
-434 -446 447 0
c gate 448 -411 447 0
-411 -448 0
447 -448 0
411 -447 448 0
c gate 449 -434 441 0
-434 -449 0
441 -449 0
434 -441 449 0
c gate 450 -435 -449 0
-435 -450 0
-449 -450 0
435 449 450 0
c gate 451 -448 450 0
-448 -451 0
450 -451 0
448 -450 451 0
c gate 452 -49 -137 0
-49 -452 0
-137 -452 0
49 137 452 0
c gate 453 -198 -210 0
-198 -453 0
-210 -453 0
198 210 453 0
c gate 454 -452 453 0
-452 -454 0
453 -454 0
452 -453 454 0
c gate 455 209 454 0
209 -455 0
454 -455 0
-209 -454 455 0
c gate 456 206 455 0
206 -456 0
455 -456 0
-206 -455 456 0
c gate 457 -451 456 0
-451 -457 0
456 -457 0
451 -456 457 0
c gate 458 218 -457 0
218 -458 0
-457 -458 0
-218 457 458 0
c gate 459 -55 -143 0
-55 -459 0
-143 -459 0
55 143 459 0
c gate 460 -54 -142 0
-54 -460 0
-142 -460 0
54 142 460 0
c gate 461 -459 -460 0
-459 -461 0
-460 -461 0
459 460 461 0
c gate 462 -458 461 0
-458 -462 0
461 -462 0
458 -461 462 0
c gate 463 197 -462 0
197 -463 0
-462 -463 0
-197 462 463 0
c gate 464 -56 -144 0
-56 -464 0
-144 -464 0
56 144 464 0
c gate 465 -57 -145 0
-57 -465 0
-145 -465 0
57 145 465 0
c gate 466 -464 -465 0
-464 -466 0
-465 -466 0
464 465 466 0
c gate 467 189 466 0
189 -467 0
466 -467 0
-189 -466 467 0
c gate 468 -463 467 0
-463 -468 0
467 -468 0
463 -467 468 0
c gate 469 194 -468 0
194 -469 0
-468 -469 0
-194 468 469 0
c gate 470 -63 -151 0
-63 -470 0
-151 -470 0
63 151 470 0
c gate 471 -62 -150 0
-62 -471 0
-150 -471 0
62 150 471 0
c gate 472 -64 -152 0
-64 -472 0
-152 -472 0
64 152 472 0
c gate 473 -471 -472 0
-471 -473 0
-472 -473 0
471 472 473 0
c gate 474 -470 473 0
-470 -474 0
473 -474 0
470 -473 474 0
c gate 475 -61 -149 0
-61 -475 0
-149 -475 0
61 149 475 0
c gate 476 -60 -148 0
-60 -476 0
-148 -476 0
60 148 476 0
c gate 477 -475 -476 0
-475 -477 0
-476 -477 0
475 476 477 0
c gate 478 474 477 0
474 -478 0
477 -478 0
-474 -477 478 0
c gate 479 -469 478 0
-469 -479 0
478 -479 0
469 -478 479 0
c gate 480 62 150 0
62 -480 0
150 -480 0
-62 -150 480 0
c gate 481 61 149 0
61 -481 0
149 -481 0
-61 -149 481 0
c gate 482 -480 -481 0
-480 -482 0
-481 -482 0
480 481 482 0
c gate 483 474 -482 0
474 -483 0
-482 -483 0
-474 482 483 0
c gate 484 64 152 0
64 -484 0
152 -484 0
-64 -152 484 0
c gate 485 63 151 0
63 -485 0
151 -485 0
-63 -151 485 0
c gate 486 -472 485 0
-472 -486 0
485 -486 0
472 -485 486 0
c gate 487 -484 -486 0
-484 -487 0
-486 -487 0
484 486 487 0
c gate 488 -483 487 0
-483 -488 0
487 -488 0
483 -487 488 0
c gate 489 -479 488 0
-479 -489 0
488 -489 0
479 -488 489 0
c gate 490 183 -489 0
183 -490 0
-489 -490 0
-183 489 490 0
c gate 491 -66 -154 0
-66 -491 0
-154 -491 0
66 154 491 0
c gate 492 -67 -155 0
-67 -492 0
-155 -492 0
67 155 492 0
c gate 493 -491 -492 0
-491 -493 0
-492 -493 0
491 492 493 0
c gate 494 67 155 0
67 -494 0
155 -494 0
-67 -155 494 0
c gate 495 68 156 0
68 -495 0
156 -495 0
-68 -156 495 0
c gate 496 -494 -495 0
-494 -496 0
-495 -496 0
494 495 496 0
c gate 497 -68 -156 0
-68 -497 0
-156 -497 0
68 156 497 0
c gate 498 66 154 0
66 -498 0
154 -498 0
-66 -154 498 0
c gate 499 -497 -498 0
-497 -499 0
-498 -499 0
497 498 499 0
c gate 500 496 499 0
496 -500 0
499 -500 0
-496 -499 500 0
c gate 501 493 500 0
493 -501 0
500 -501 0
-493 -500 501 0
c gate 502 490 501 0
490 -502 0
501 -502 0
-490 -501 502 0
c gate 503 -69 -157 0
-69 -503 0
-157 -503 0
69 157 503 0
c gate 504 502 -503 0
502 -504 0
-503 -504 0
-502 503 504 0
c gate 505 -181 -498 0
-181 -505 0
-498 -505 0
181 498 505 0
c gate 506 493 -505 0
493 -506 0
-505 -506 0
-493 505 506 0
c gate 507 496 -506 0
496 -507 0
-506 -507 0
-496 506 507 0
c gate 508 -497 -507 0
-497 -508 0
-507 -508 0
497 507 508 0
c gate 509 -503 508 0
-503 -509 0
508 -509 0
503 -508 509 0
c gate 510 70 158 0
70 -510 0
158 -510 0
-70 -158 510 0
c gate 511 69 157 0
69 -511 0
157 -511 0
-69 -157 511 0
c gate 512 -510 -511 0
-510 -512 0
-511 -512 0
510 511 512 0
c gate 513 -509 512 0
-509 -513 0
512 -513 0
509 -512 513 0
c gate 514 -504 513 0
-504 -514 0
513 -514 0
504 -513 514 0
c gate 515 -180 -514 0
-180 -515 0
-514 -515 0
180 514 515 0
c gate 516 -71 -159 0
-71 -516 0
-159 -516 0
71 159 516 0
c gate 517 515 -516 0
515 -517 0
-516 -517 0
-515 516 517 0
c gate 518 179 -517 0
179 -518 0
-517 -518 0
-179 517 518 0
c gate 519 -72 -160 0
-72 -519 0
-160 -519 0
72 160 519 0
c gate 520 -180 -516 0
-180 -520 0
-516 -520 0
180 516 520 0
c gate 521 -513 520 0
-513 -521 0
520 -521 0
513 -520 521 0
c gate 522 179 -521 0
179 -522 0
-521 -522 0
-179 521 522 0
c gate 523 73 161 0
73 -523 0
161 -523 0
-73 -161 523 0
c gate 524 74 162 0
74 -524 0
162 -524 0
-74 -162 524 0
c gate 525 -523 -524 0
-523 -525 0
-524 -525 0
523 524 525 0
c gate 526 -74 -162 0
-74 -526 0
-162 -526 0
74 162 526 0
c gate 527 -75 -163 0
-75 -527 0
-163 -527 0
75 163 527 0
c gate 528 -526 -527 0
-526 -528 0
-527 -528 0
526 527 528 0
c gate 529 -525 528 0
-525 -529 0
528 -529 0
525 -528 529 0
c gate 530 75 163 0
75 -530 0
163 -530 0
-75 -163 530 0
c gate 531 76 164 0
76 -531 0
164 -531 0
-76 -164 531 0
c gate 532 -530 -531 0
-530 -532 0
-531 -532 0
530 531 532 0
c gate 533 -529 532 0
-529 -533 0
532 -533 0
529 -532 533 0
c gate 534 -79 -167 0
-79 -534 0
-167 -534 0
79 167 534 0
c gate 535 -78 -166 0
-78 -535 0
-166 -535 0
78 166 535 0
c gate 536 -80 -168 0
-80 -536 0
-168 -536 0
80 168 536 0
c gate 537 -535 -536 0
-535 -537 0
-536 -537 0
535 536 537 0
c gate 538 -534 537 0
-534 -538 0
537 -538 0
534 -537 538 0
c gate 539 -77 -165 0
-77 -539 0
-165 -539 0
77 165 539 0
c gate 540 -76 -164 0
-76 -540 0
-164 -540 0
76 164 540 0
c gate 541 -539 -540 0
-539 -541 0
-540 -541 0
539 540 541 0
c gate 542 538 541 0
538 -542 0
541 -542 0
-538 -541 542 0
c gate 543 -533 542 0
-533 -543 0
542 -543 0
533 -542 543 0
c gate 544 78 166 0
78 -544 0
166 -544 0
-78 -166 544 0
c gate 545 77 165 0
77 -545 0
165 -545 0
-77 -165 545 0
c gate 546 -544 -545 0
-544 -546 0
-545 -546 0
544 545 546 0
c gate 547 538 -546 0
538 -547 0
-546 -547 0
-538 546 547 0
c gate 548 80 168 0
80 -548 0
168 -548 0
-80 -168 548 0
c gate 549 79 167 0
79 -549 0
167 -549 0
-79 -167 549 0
c gate 550 -536 549 0
-536 -550 0
549 -550 0
536 -549 550 0
c gate 551 -548 -550 0
-548 -551 0
-550 -551 0
548 550 551 0
c gate 552 -547 551 0
-547 -552 0
551 -552 0
547 -551 552 0
c gate 553 -543 552 0
-543 -553 0
552 -553 0
543 -552 553 0
c gate 554 -73 -161 0
-73 -554 0
-161 -554 0
73 161 554 0
c gate 555 528 -554 0
528 -555 0
-554 -555 0
-528 554 555 0
c gate 556 542 555 0
542 -556 0
555 -556 0
-542 -555 556 0
c gate 557 553 556 0
553 -557 0
556 -557 0
-553 -556 557 0
c gate 558 -522 -557 0
-522 -558 0
-557 -558 0
522 557 558 0
c gate 559 -519 -558 0
-519 -559 0
-558 -559 0
519 558 559 0
c gate 560 -518 559 0
-518 -560 0
559 -560 0
518 -559 560 0
c gate 561 -194 478 0
-194 -561 0
478 -561 0
194 -478 561 0
c gate 562 488 -561 0
488 -562 0
-561 -562 0
-488 561 562 0
c gate 563 183 -562 0
183 -563 0
-562 -563 0
-183 562 563 0
c gate 564 501 563 0
501 -564 0
563 -564 0
-501 -563 564 0
c gate 565 -508 -564 0
-508 -565 0
-564 -565 0
508 564 565 0
c gate 566 -511 565 0
-511 -566 0
565 -566 0
511 -565 566 0
c gate 567 -180 -503 0
-180 -567 0
-503 -567 0
180 503 567 0
c gate 568 -566 567 0
-566 -568 0
567 -568 0
566 -567 568 0
c gate 569 -510 -568 0
-510 -569 0
-568 -569 0
510 568 569 0
c gate 570 515 -569 0
515 -570 0
-569 -570 0
-515 569 570 0
c gate 571 -515 569 0
-515 -571 0
569 -571 0
515 -569 571 0
c gate 572 -570 -571 0
-570 -572 0
-571 -572 0
570 571 572 0
c gate 573 -490 505 0
-490 -573 0
505 -573 0
490 -505 573 0
c gate 574 -491 505 0
-491 -574 0
505 -574 0
491 -505 574 0
c gate 575 -563 574 0
-563 -575 0
574 -575 0
563 -574 575 0
c gate 576 -573 575 0
-573 -576 0
575 -576 0
573 -575 576 0
c gate 577 479 562 0
479 -577 0
562 -577 0
-479 -562 577 0
c gate 578 197 -464 0
197 -578 0
-464 -578 0
-197 464 578 0
c gate 579 218 578 0
218 -579 0
578 -579 0
-218 -578 579 0
c gate 580 462 579 0
462 -580 0
579 -580 0
-462 -579 580 0
c gate 581 -414 -436 0
-414 -581 0
-436 -581 0
414 436 581 0
c gate 582 -246 581 0
-246 -582 0
581 -582 0
246 -581 582 0
c gate 583 233 582 0
233 -583 0
582 -583 0
-233 -582 583 0
c gate 584 399 583 0
399 -584 0
583 -584 0
-399 -583 584 0
c gate 585 410 584 0
410 -585 0
584 -585 0
-410 -584 585 0
c gate 586 379 397 0
379 -586 0
397 -586 0
-379 -397 586 0
c gate 587 363 586 0
363 -587 0
586 -587 0
-363 -586 587 0
c gate 588 252 -274 0
252 -588 0
-274 -588 0
-252 274 588 0
c gate 589 249 -588 0
249 -589 0
-588 -589 0
-249 588 589 0
c gate 590 383 589 0
383 -590 0
589 -590 0
-383 -589 590 0
c gate 591 361 388 0
361 -591 0
388 -591 0
-361 -388 591 0
c gate 592 -590 -591 0
-590 -592 0
-591 -592 0
590 591 592 0
c gate 593 319 -592 0
319 -593 0
-592 -593 0
-319 592 593 0
c gate 594 -82 -170 0
-82 -594 0
-170 -594 0
82 170 594 0
c gate 595 85 173 0
85 -595 0
173 -595 0
-85 -173 595 0
c gate 596 -594 -595 0
-594 -596 0
-595 -596 0
594 595 596 0
c gate 597 -88 -176 0
-88 -597 0
-176 -597 0
88 176 597 0
c gate 598 82 170 0
82 -598 0
170 -598 0
-82 -170 598 0
c gate 599 -597 -598 0
-597 -599 0
-598 -599 0
597 598 599 0
c gate 600 596 599 0
596 -600 0
599 -600 0
-596 -599 600 0
c gate 601 81 -169 0
81 -601 0
-169 -601 0
-81 169 601 0
c gate 602 -81 169 0
-81 -602 0
169 -602 0
81 -169 602 0
c gate 603 -601 -602 0
-601 -603 0
-602 -603 0
601 602 603 0
c gate 604 87 175 0
87 -604 0
175 -604 0
-87 -175 604 0
c gate 605 -84 -172 0
-84 -605 0
-172 -605 0
84 172 605 0
c gate 606 -604 -605 0
-604 -606 0
-605 -606 0
604 605 606 0
c gate 607 -603 606 0
-603 -607 0
606 -607 0
603 -606 607 0
c gate 608 600 607 0
600 -608 0
607 -608 0
-600 -607 608 0
c gate 609 -87 -175 0
-87 -609 0
-175 -609 0
87 175 609 0
c gate 610 86 174 0
86 -610 0
174 -610 0
-86 -174 610 0
c gate 611 -609 -610 0
-609 -611 0
-610 -611 0
609 610 611 0
c gate 612 -83 -171 0
-83 -612 0
-171 -612 0
83 171 612 0
c gate 613 -85 -173 0
-85 -613 0
-173 -613 0
85 173 613 0
c gate 614 -612 -613 0
-612 -614 0
-613 -614 0
612 613 614 0
c gate 615 611 614 0
611 -615 0
614 -615 0
-611 -614 615 0
c gate 616 83 171 0
83 -616 0
171 -616 0
-83 -171 616 0
c gate 617 84 172 0
84 -617 0
172 -617 0
-84 -172 617 0
c gate 618 -616 -617 0
-616 -618 0
-617 -618 0
616 617 618 0
c gate 619 88 176 0
88 -619 0
176 -619 0
-88 -176 619 0
c gate 620 -86 -174 0
-86 -620 0
-174 -620 0
86 174 620 0
c gate 621 -619 -620 0
-619 -621 0
-620 -621 0
619 620 621 0
c gate 622 618 621 0
618 -622 0
621 -622 0
-618 -621 622 0
c gate 623 615 622 0
615 -623 0
622 -623 0
-615 -622 623 0
c gate 624 608 623 0
608 -624 0
623 -624 0
-608 -623 624 0
c gate 625 -553 624 0
-553 -625 0
624 -625 0
553 -624 625 0
c gate 626 -315 589 0
-315 -626 0
589 -626 0
315 -589 626 0
c gate 627 312 626 0
312 -627 0
626 -627 0
-312 -626 627 0
c gate 628 -625 -627 0
-625 -628 0
-627 -628 0
625 627 628 0
c gate 629 -593 628 0
-593 -629 0
628 -629 0
593 -628 629 0
c gate 630 -587 629 0
-587 -630 0
629 -630 0
587 -629 630 0
c gate 631 -585 630 0
-585 -631 0
630 -631 0
585 -630 631 0
c gate 632 -448 631 0
-448 -632 0
631 -632 0
448 -631 632 0
c gate 633 -580 632 0
-580 -633 0
632 -633 0
580 -632 633 0
c gate 634 -577 633 0
-577 -634 0
633 -634 0
577 -633 634 0
c gate 635 -576 634 0
-576 -635 0
634 -635 0
576 -634 635 0
c gate 636 502 565 0
502 -636 0
565 -636 0
-502 -565 636 0
c gate 637 -181 -563 0
-181 -637 0
-563 -637 0
181 563 637 0
c gate 638 -491 -637 0
-491 -638 0
-637 -638 0
491 637 638 0
c gate 639 573 638 0
573 -639 0
638 -639 0
-573 -638 639 0
c gate 640 -636 -639 0
-636 -640 0
-639 -640 0
636 639 640 0
c gate 641 635 640 0
635 -641 0
640 -641 0
-635 -640 641 0
c gate 642 -572 641 0
-572 -642 0
641 -642 0
572 -641 642 0
c gate 643 -560 642 0
-560 -643 0
642 -643 0
560 -642 643 0
c PO
-643 0
